results/res_prop_muc/res_Cimatti_mathsat_cores/QF_RDL/fischer3-mutex-4.smt.smt2.res
unsat
( c10
  c1002
  c1022
  c1034
  c104
  c1040
  c1041
  c1042
  c1044
  c1045
  c105
  c1055
  c106
  c1065
  c1075
  c108
  c1085
  c109
  c1095
  c11
  c1104
  c1113
  c1128
  c1138
  c1148
  c1158
  c1168
  c1177
  c1186
  c119
  c12
  c1200
  c1208
  c1216
  c1220
  c1224
  c1228
  c1258
  c1259
  c1260
  c1261
  c1263
  c1269
  c1273
  c1277
  c128
  c1281
  c1284
  c1288
  c1292
  c1293
  c1297
  c13
  c1301
  c1304
  c1305
  c1306
  c1309
  c1312
  c1313
  c1317
  c1319
  c1320
  c1326
  c1327
  c1328
  c1329
  c1334
  c138
  c14
  c147
  c15
  c150
  c156
  c16
  c161
  c162
  c169
  c17
  c171
  c177
  c178
  c179
  c181
  c182
  c19
  c191
  c192
  c201
  c204
  c211
  c217
  c220
  c223
  c229
  c23
  c234
  c235
  c242
  c244
  c250
  c251
  c252
  c254
  c255
  c264
  c27
  c272
  c276
  c280
  c284
  c288
  c292
  c31
  c322
  c323
  c324
  c325
  c326
  c327
  c331
  c335
  c339
  c343
  c347
  c35
  c350
  c352
  c359
  c362
  c369
  c375
  c381
  c384
  c389
  c393
  c396
  c402
  c41
  c410
  c416
  c417
  c418
  c420
  c421
  c430
  c434
  c440
  c450
  c459
  c461
  c474
  c475
  c481
  c483
  c489
  c490
  c491
  c493
  c494
  c5
  c504
  c51
  c513
  c523
  c532
  c535
  c537
  c547
  c548
  c554
  c556
  c562
  c563
  c564
  c566
  c567
  c57
  c576
  c577
  c58
  c584
  c588
  c59
  c592
  c596
  c600
  c604
  c63
  c634
  c635
  c636
  c637
  c638
  c639
  c647
  c651
  c655
  c659
  c662
  c671
  c681
  c69
  c693
  c695
  c7
  c701
  c714
  c722
  c728
  c729
  c730
  c732
  c733
  c742
  c752
  c762
  c77
  c771
  c786
  c787
  c795
  c796
  c801
  c802
  c803
  c806
  c81
  c815
  c825
  c835
  c84
  c844
  c860
  c868
  c874
  c875
  c876
  c879
  c888
  c889
  c896
  c90
  c904
  c908
  c912
  c947
  c948
  c949
  c951
  c959
  c963
  c967
  c971
  c974
  c98
  c983
  c993 )
